c ---- [ banner ] ------------------------------------------------------------
c
c Kissat SAT Solver
c 
c Copyright (c) 2021-2024 Armin Biere University of Freiburg
c Copyright (c) 2019-2021 Armin Biere Johannes Kepler University Linz
c 
c Version 4.0.1 43f02cf3e992cb44653b35e5cb26f93281552ae0
c gcc (Ubuntu 13.2.0-23ubuntu4) 13.2.0 -W -Wall -O3 -DNDEBUG
c Thu Sep 12 12:27:46 CEST 2024 Linux abryzen9 6.8.0-41-generic x86_64
c
c ---- [ parsing ] -----------------------------------------------------------
c
c opened and reading DIMACS file:
c
c   /data/artifact/AMulet2.0_artifact/exp4/cnf_resyn3_64/64_64_U2_DT_HCA_Multgen_resyn3.cnf
c
c parsed 'p cnf 27239 124183' header
c closing input after reading 2478961 bytes (2 MB)
c finished parsing after 0.02 seconds
c
c ---- [ options ] -----------------------------------------------------------
c
c --stable=0                       (different from default '1')
c
c ---- [ solving ] -----------------------------------------------------------
c
c  seconds switched rate     size/glue tier1  binary          remaining
c         MB reductions conflicts size  tier2    irredundant
c          level restarts redundant glue  trail          variables
c
c *  0.02 10 0 0 0  0 0   0   0 0.0 0 0 0 0 0% 2977 121204 27236 100%
c (  0.03 12 0 0 0  0 0   0   0 0.0 0 0 0 0 0% 2977 121204 27236 100%
c .  0.04 12 0 0 0  0 0   0   0 0.0 0 0 0 0 0% 2973 121204 27236 100%
c =  0.12 17 0 0 0  0 0   0   0 0.0 0 0 0 0 0% 3528 121204 26977 99%
c d  0.13 17 0 0 0  0 0   0   0 0.0 0 0 0 0 0% 3010 121204 26977 99%
c f  0.23 16 0 0 0  0 0   0   0 0.0 0 0 0 0 0% 9642 111241 30299 111%
c e  0.37 25 0 0 0  0 0   0   0 0.0 0 0 0 0 0% 2433 121389 20685 76%
c )  0.37 25 0 0 0  0 0   0   0 0.0 0 0 0 0 0% 2433 121389 20685 76%
c {  0.39 25 0 0 0  0 0   0   0 0.0 0 0 2 6 0% 2433 121389 20685 76%
c -  0.48 25 109 0 1 215 26 1002 796 1.6 6 4 2 7 15% 2481 121389 20685 76%
c -  0.70 27 152 0 2 460 43 2002 1589 2.8 13 5 3 8 21% 2498 121389 20685 76%
c d  0.84 27 217 0 2 566 48 2505 2043 2.9 14 5 3 9 24% 2502 121389 20682 76%
c u  0.86 27 217 0 2 566 48 2505 1775 2.9 14 5 3 9 24% 2506 121389 20682 76%
c v  0.88 27 217 0 2 566 48 2505 1531 2.9 14 5 3 9 24% 2506 121389 20682 76%
c w  0.90 27 217 0 2 566 48 2505 1526 2.9 14 5 3 9 24% 2506 121389 20682 76%
c x  0.92 27 217 0 2 566 48 2505 1526 2.9 14 5 3 9 24% 2506 121370 20682 76%
c =  0.99 27 217 0 2 566 48 2505 1526 2.9 14 5 3 9 24% 2510 121370 20680 76%
c d  0.99 27 217 0 2 566 48 2505 1526 2.9 14 5 3 9 24% 2506 121370 20680 76%
c t  1.00 27 217 0 2 566 48 2505 1526 2.9 14 5 3 9 24% 2504 121370 20680 76%
c f  1.02 27 217 0 2 566 48 2505 1526 2.9 14 5 3 9 24% 2510 121360 20684 76%
c
c  seconds   switched   rate       size/glue tier1    binary          remaining
c         MB  reductions conflicts       size  tier2     irredundant
c           level restarts    redundant    glue   trail          variables
c
c u  1.08 23 217 0 2 566 48 2505 1492 2.9 14 5 3 9 24% 2512 121360 20684 76%
c v  1.09 25 217 0 2 566 48 2505 1454 2.9 14 5 3 9 24% 2512 121360 20684 76%
c w  1.12 25 217 0 2 566 48 2505 1447 2.9 14 5 3 9 24% 2512 121360 20684 76%
c =  1.18 25 217 0 2 566 48 2505 1447 2.9 14 5 3 9 24% 2522 121360 20679 76%
c d  1.18 25 217 0 2 566 48 2505 1447 2.9 14 5 3 9 24% 2512 121360 20679 76%
c f  1.21 25 217 0 2 566 48 2505 1447 2.9 14 5 3 9 24% 2555 121295 20701 76%
c -  1.34 25 269 0 3 673 48 3416 2092 2.8 14 5 3 9 23% 2575 121295 20701 76%
c -  1.74 25 284 0 4 930 49 5151 3301 3.3 17 5 2 9 25% 2610 121295 20701 76%
c -  2.19 25 273 0 5 1197 49 7152 4474 3.6 20 5 2 8 25% 2666 121295 20701 76%
c d  2.32 25 272 0 5 1275 49 7715 5000 3.6 20 6 2 8 25% 2638 121295 20683 76%
c u  2.34 25 272 0 5 1275 49 7715 4630 3.6 20 6 2 8 25% 2642 121295 20683 76%
c v  2.36 25 272 0 5 1275 49 7715 3936 3.6 20 6 2 8 25% 2642 121295 20683 76%
c w  2.41 25 272 0 5 1275 49 7715 3928 3.6 20 6 2 8 25% 2642 121295 20683 76%
c x  2.43 25 272 0 5 1275 49 7715 3928 3.6 20 6 2 8 25% 2642 121293 20683 76%
c =  2.56 25 272 0 5 1275 49 7715 3928 3.6 20 6 2 8 25% 2820 121293 20594 76%
c d  2.57 25 272 0 5 1275 49 7715 3917 3.6 20 6 2 8 25% 2638 121293 20594 76%
c t  2.58 25 272 0 5 1275 49 7715 3917 3.6 20 6 2 8 25% 2624 121293 20594 76%
c f  2.61 25 272 0 5 1275 49 7715 3917 3.6 20 6 2 8 25% 2762 121085 20663 76%
c u  2.64 25 272 0 5 1275 49 7715 3859 3.6 20 6 2 8 25% 2763 121085 20663 76%
c v  2.65 25 272 0 5 1275 49 7715 3759 3.6 20 6 2 8 25% 2763 121085 20663 76%
c
c  seconds   switched    rate       size/glue tier1    binary          remaining
c         MB  reductions  conflicts       size  tier2     irredundant
c           level  restarts    redundant    glue   trail          variables
c
c w  2.70 25 272 0 5 1275 49 7715 3748 3.6 20 6 2 8 25% 2763 121085 20663 76%
c =  2.82 25 272 0 5 1275 49 7715 3748 3.6 20 6 2 8 25% 2857 121085 20616 76%
c d  2.83 25 272 0 5 1275 49 7715 3743 3.6 20 6 2 8 25% 2760 121085 20616 76%
c t  2.84 25 272 0 5 1275 49 7715 3743 3.6 20 6 2 8 25% 2699 121085 20616 76%
c f  2.87 25 272 0 5 1275 49 7715 3743 3.6 20 6 2 8 25% 2891 120797 20712 76%
c -  3.20 25 268 0 6 1402 47 9388 4705 3.4 23 7 2 8 26% 2922 120797 20712 76%
c o  3.28 25 275 0 6 1437 46 10100 5283 3.4 22 7 2 8 26% 2956 120797 20712 76%
c -  3.58 25 288 0 7 1560 43 11837 6116 3.5 23 7 2 9 27% 2995 120797 20712 76%
c s  3.75 25 284 0 7 1637 43 12520 6725 3.6 24 7 2 9 27% 3014 118613 20712 76%
c e  3.84 25 284 0 7 1637 43 12520 6725 3.6 24 7 2 9 27% 2668 118735 20234 74%
c 2  3.84 25 284 0 7 1637 43 12520 6725 3.6 24 7 2 9 27% 2667 118735 20234 74%
c s  3.84 25 284 0 7 1637 43 12520 6725 3.6 24 7 2 9 27% 2670 118487 20234 74%
c e  3.85 25 284 0 7 1637 43 12520 6725 3.6 24 7 2 9 27% 2620 118535 20209 74%
c ^  3.85 25 284 0 7 1637 43 12520 6725 3.6 24 7 2 9 27% 2620 118535 20209 74%
c -  4.03 25 287 0 8 1725 41 14484 7203 3.4 23 7 2 8 25% 2680 118535 20209 74%
c c  4.21 26 313 0 8 1778 40 15803 8351 3.4 23 7 2 8 25% 2735 118365 20181 74%
c d  4.22 26 313 0 8 1778 40 15803 8311 3.4 23 7 2 8 25% 2653 118365 20168 74%
c u  4.24 26 313 0 8 1778 40 15803 7559 3.4 23 7 2 8 25% 2664 118365 20168 74%
c v  4.27 26 313 0 8 1778 40 15803 6489 3.4 23 7 2 8 25% 2665 118365 20168 74%
c w  4.33 26 313 0 8 1778 40 15803 6466 3.4 23 7 2 8 25% 2665 118365 20168 74%
c
c  seconds   switched    rate        size/glue tier1    binary          remaining
c         MB  reductions   conflicts       size  tier2     irredundant
c           level  restarts     redundant    glue   trail          variables
c
c =  4.46 26 313 0 8 1778 40 15803 6466 3.4 23 7 2 8 25% 5273 118365 18864 69%
c d  4.46 26 313 0 8 1778 40 15803 6413 3.4 23 7 2 8 25% 2543 118365 18860 69%
c t  4.47 26 313 0 8 1778 40 15803 6413 3.4 23 7 2 8 25% 2464 118365 18860 69%
c f  4.51 26 313 0 8 1778 40 15803 6413 3.4 23 7 2 8 25% 2482 118306 18876 69%
c u  4.54 26 313 0 8 1778 40 15803 6194 3.4 23 7 2 8 25% 2484 118306 18876 69%
c v  4.56 26 313 0 8 1778 40 15803 6038 3.4 23 7 2 8 25% 2484 118306 18876 69%
c w  4.61 26 313 0 8 1778 40 15803 6028 3.4 23 7 2 8 25% 2484 118306 18876 69%
c x  4.64 26 313 0 8 1778 40 15803 6028 3.4 23 7 2 8 25% 2484 115190 18876 69%
c =  4.77 26 313 0 8 1778 40 15803 6028 3.4 23 7 2 8 25% 5074 115190 17581 65%
c d  4.77 26 313 0 8 1778 40 15803 5970 3.4 23 7 2 8 25% 2419 115190 17581 65%
c -  5.09 26 308 0 9 1903 39 17316 6562 3.4 23 7 2 8 25% 2457 115190 17581 65%
c o  5.63 26 297 0 9 2156 38 20226 9114 3.3 24 7 2 8 26% 2519 115190 17581 65%
c -  5.65 26 297 0 10 2175 38 20316 8346 3.4 24 7 2 8 26% 2519 115190 17581 65%
c -  6.19 26 296 0 11 2419 37 23479 9971 3.5 25 7 2 8 26% 2577 115190 17581 65%
c s  6.61 26 291 0 11 2637 37 25036 11355 3.5 26 7 2 8 27% 2600 101759 17581 65%
c e  6.68 26 291 0 11 2637 37 25036 11355 3.5 26 7 2 8 27% 2287 102120 17275 63%
c s  6.69 26 291 0 11 2637 37 25036 11355 3.5 26 7 2 8 27% 2307 101653 17275 63%
c e  6.69 26 291 0 11 2637 37 25036 11355 3.5 26 7 2 8 27% 2299 101664 17272 63%
c ^  6.69 26 291 0 11 2637 37 25036 11355 3.5 26 7 2 8 27% 2299 101664 17272 63%
c -  7.01 26 285 0 12 2791 36 26795 10933 3.5 27 8 2 7 27% 2349 101664 17272 63%
c
c  seconds   switched     rate         size/glue tier1    binary          remaining
c         MB   reductions   conflicts        size  tier2     irredundant
c           level   restarts      redundant    glue   trail          variables
c
c c  7.07 26 286 0 12 2801 36 26938 11045 3.5 27 8 2 7 27% 2415 101271 17214 63%
c d  7.08 26 286 0 12 2801 36 26938 10985 3.5 27 8 2 7 27% 2289 101271 17208 63%
c u  7.11 26 286 0 12 2801 36 26938 9748 3.5 27 8 2 7 27% 2306 101271 17208 63%
c v  7.14 26 286 0 12 2801 36 26938 8599 3.5 27 8 2 7 27% 2307 101271 17208 63%
c w  7.16 26 286 0 12 2801 36 26938 8597 3.5 27 8 2 7 27% 2307 101271 17208 63%
c =  7.37 26 286 0 12 2801 36 26938 8597 3.5 27 8 2 7 27% 6323 101267 15200 56%
c d  7.38 26 286 0 12 2801 36 26938 8364 3.5 27 8 2 7 27% 2150 101267 15200 56%
c t  7.38 26 286 0 12 2801 36 26938 8364 3.5 27 8 2 7 27% 2019 101267 15200 56%
c f  7.44 26 286 0 12 2801 36 26938 8364 3.5 27 8 2 7 27% 2021 101239 15206 56%
c u  7.51 26 286 0 12 2801 36 26938 7888 3.5 27 8 2 7 27% 2021 101239 15206 56%
c v  7.53 26 286 0 12 2801 36 26938 7678 3.5 27 8 2 7 27% 2021 101239 15206 56%
c w  7.54 26 286 0 12 2801 36 26938 7675 3.5 27 8 2 7 27% 2021 101239 15206 56%
c x  7.60 26 286 0 12 2801 36 26938 7675 3.5 27 8 2 7 27% 2021 94179 15206 56%
c =  7.78 26 286 0 12 2801 36 26938 7675 3.5 27 8 2 7 27% 2805 94179 14814 54%
c d  7.79 26 286 0 12 2801 36 26938 7673 3.5 27 8 2 7 27% 2017 94179 14814 54%
c t  7.79 26 286 0 12 2801 36 26938 7673 3.5 27 8 2 7 27% 1955 94179 14814 54%
c f  7.80 26 286 0 12 2801 36 26938 7673 3.5 27 8 2 7 27% 1959 94154 14819 54%
c -  8.09 26 276 0 13 2958 34 30260 9656 3.4 26 8 2 7 26% 1977 94154 14819 54%
c -  8.54 26 266 0 14 3178 33 33865 11682 3.4 25 7 2 7 27% 2005 94154 14819 54%
c -  9.02 26 264 0 15 3427 31 37606 13385 3.4 25 7 2 7 26% 2039 94154 14819 54%
c
c  seconds   switched     rate         size/glue tier1    binary         remaining
c         MB   reductions   conflicts        size  tier2     irredundant
c           level   restarts      redundant    glue   trail         variables
c
c o  9.37 26 258 0 15 3602 31 40332 15780 3.4 25 7 2 7 27% 2070 94154 14819 54%
c d  9.52 26 257 0 15 3692 31 41266 16536 3.4 25 7 2 7 27% 2041 94154 14799 54%
c u  9.57 26 257 0 15 3692 31 41266 15023 3.4 25 7 2 7 27% 2057 94154 14799 54%
c v  9.60 26 257 0 15 3692 31 41266 14279 3.4 25 7 2 7 27% 2060 94154 14799 54%
c w  9.64 26 257 0 15 3692 31 41266 14279 3.4 25 7 2 7 27% 2060 94154 14799 54%
c x  9.66 28 257 0 15 3692 31 41266 14279 3.4 25 7 2 7 27% 2060 94144 14799 54%
c d  9.84 28 257 0 15 3692 31 41266 14272 3.4 25 7 2 7 27% 2050 94144 14794 54%
c t  9.84 28 257 0 15 3692 31 41266 14272 3.4 25 7 2 7 27% 2048 94144 14794 54%
c f  9.85 28 257 0 15 3692 31 41266 14272 3.4 25 7 2 7 27% 2069 94083 14805 54%
c c  9.90 28 257 0 15 3692 31 41266 14119 3.4 25 7 2 7 27% 2114 93875 14779 54%
c d  9.90 28 257 0 15 3692 31 41266 14119 3.4 25 7 2 7 27% 2062 93875 14779 54%
c u  9.94 28 257 0 15 3692 31 41266 13567 3.4 25 7 2 7 27% 2072 93875 14779 54%
c v  9.98 28 257 0 15 3692 31 41266 12540 3.4 25 7 2 7 27% 2074 93875 14779 54%
c w 10.05 28 257 0 15 3692 31 41266 12539 3.4 25 7 2 7 27% 2074 93875 14779 54%
c d 10.06 28 257 0 15 3692 31 41266 12537 3.4 25 7 2 7 27% 2066 93875 14775 54%
c t 10.06 28 257 0 15 3692 31 41266 12537 3.4 25 7 2 7 27% 2055 93875 14775 54%
c - 10.10 28 257 0 16 3703 31 41478 11392 3.4 25 7 2 6 27% 2059 93875 14775 54%
c - 10.65 28 257 0 17 4004 30 45478 13473 3.4 25 7 2 6 27% 2105 93875 14775 54%
c - 11.47 28 249 0 18 4483 30 49602 15535 3.4 26 8 2 6 28% 2147 93875 14775 54%
c s 11.67 28 246 0 18 4581 29 52137 17718 3.3 25 8 2 6 27% 2182 85264 14775 54%
c
c  seconds   switched     rate         size/glue tier1    binary         remaining
c         MB   reductions   conflicts        size  tier2     irredundant
c           level   restarts      redundant    glue   trail         variables
c
c e 11.74 28 246 0 18 4581 29 52137 17718 3.3 25 8 2 6 27% 1980 85547 14523 53%
c s 11.74 28 246 0 18 4581 29 52137 17718 3.3 25 8 2 6 27% 1982 85220 14523 53%
c e 11.75 28 246 0 18 4581 29 52137 17718 3.3 25 8 2 6 27% 1980 85223 14522 53%
c ^ 11.75 28 246 0 18 4581 29 52137 17718 3.3 25 8 2 6 27% 1980 85223 14522 53%
c - 11.93 28 244 0 19 4672 29 53844 16465 3.3 25 8 2 6 27% 2005 85223 14522 53%
c - 12.58 28 239 0 20 5057 29 58202 18079 3.3 25 8 2 6 27% 2061 85223 14522 53%
c c 12.77 28 238 0 20 5152 29 58894 18693 3.3 25 8 2 6 27% 2149 84599 14437 53%
c d 12.77 28 238 0 20 5152 29 58894 18374 3.3 25 8 2 6 27% 1979 84599 14437 53%
c u 12.83 28 238 0 20 5152 29 58894 15829 3.3 25 8 2 6 27% 2015 84599 14437 53%
c v 12.87 28 238 0 20 5152 29 58894 14664 3.3 25 8 2 6 27% 2015 84599 14437 53%
c w 12.91 28 238 0 20 5152 29 58894 14664 3.3 25 8 2 6 27% 2015 84599 14437 53%
c x 12.95 28 238 0 20 5152 29 58894 14663 3.3 25 8 2 6 27% 2023 84390 14437 53%
c d 13.19 28 238 0 20 5152 29 58894 14633 3.3 25 8 2 6 27% 1991 84390 14421 53%
c t 13.20 28 238 0 20 5152 29 58894 14633 3.3 25 8 2 6 27% 1973 84390 14421 53%
c f 13.21 28 238 0 20 5152 29 58894 14633 3.3 25 8 2 6 27% 1966 84382 14424 53%
c c 13.25 28 238 0 20 5152 29 58894 14565 3.3 25 8 2 6 27% 1995 84242 14407 53%
c d 13.26 28 238 0 20 5152 29 58894 14565 3.3 25 8 2 6 27% 1961 84242 14407 53%
c u 13.30 28 238 0 20 5152 29 58894 14037 3.3 25 8 2 6 27% 1968 84242 14407 53%
c v 13.34 28 238 0 20 5152 29 58894 13393 3.3 25 8 2 6 27% 1970 84242 14407 53%
c w 13.41 28 238 0 20 5152 29 58894 13365 3.3 25 8 2 6 27% 1970 84242 14407 53%
c
c  seconds   switched     rate         size/glue tier1    binary         remaining
c         MB   reductions   conflicts        size  tier2     irredundant
c           level   restarts      redundant    glue   trail         variables
c
c x 13.44 28 238 0 20 5152 29 58894 13365 3.3 25 8 2 6 27% 1971 84233 14407 53%
c d 13.45 28 238 0 20 5152 29 58894 13364 3.3 25 8 2 6 27% 1963 84233 14403 53%
c t 13.46 28 238 0 20 5152 29 58894 13364 3.3 25 8 2 6 27% 1961 84233 14403 53%
c - 13.90 28 236 0 21 5407 28 62674 15142 3.3 25 8 2 6 27% 2024 84233 14403 53%
c - 14.57 28 231 0 22 5847 28 67257 17504 3.3 25 8 2 6 27% 2090 84233 14403 53%
c o 14.95 28 226 0 22 6025 27 70336 20215 3.3 25 8 2 6 27% 2143 84233 14403 53%
c - 15.22 28 225 0 23 6196 27 71947 19512 3.3 25 8 2 6 27% 2148 84233 14403 53%
c - 15.86 28 220 0 24 6571 27 76742 18986 3.3 25 8 1 6 27% 2208 84233 14403 53%
c c 16.59 28 219 0 24 7030 27 79960 21960 3.3 25 8 1 6 27% 2300 83449 14276 52%
c d 16.59 28 219 0 24 7030 27 79960 21632 3.3 25 8 1 6 27% 2046 83449 14276 52%
c u 16.63 28 219 0 24 7030 27 79960 20119 3.3 25 8 1 6 27% 2055 83449 14276 52%
c v 16.72 28 219 0 24 7030 27 79960 16861 3.3 25 8 1 6 27% 2069 83449 14276 52%
c w 16.86 28 219 0 24 7030 27 79960 16837 3.3 25 8 1 6 27% 2069 83449 14276 52%
c d 16.87 28 219 0 24 7030 27 79960 16828 3.3 25 8 1 6 27% 2055 83449 14269 52%
c t 16.88 28 219 0 24 7030 27 79960 16828 3.3 25 8 1 6 27% 2046 83449 14269 52%
c f 16.89 28 219 0 24 7030 27 79960 16828 3.3 25 8 1 6 27% 2050 83431 14271 52%
c c 16.92 28 219 0 24 7030 27 79960 16816 3.3 25 8 1 6 27% 2061 83383 14265 52%
c d 16.93 28 219 0 24 7030 27 79960 16816 3.3 25 8 1 6 27% 2049 83383 14265 52%
c u 16.96 28 219 0 24 7030 27 79960 16419 3.3 25 8 1 6 27% 2054 83383 14265 52%
c v 17.02 28 219 0 24 7030 27 79960 15696 3.3 25 8 1 6 27% 2055 83383 14265 52%
c
c  seconds   switched     rate         size/glue tier1    binary         remaining
c         MB   reductions   conflicts        size  tier2     irredundant
c           level   restarts      redundant    glue   trail         variables
c
c w 17.12 28 219 0 24 7030 27 79960 15678 3.3 25 8 1 6 27% 2055 83383 14265 52%
c x 17.17 28 219 0 24 7030 27 79960 15677 3.3 25 8 1 6 27% 2080 83062 14265 52%
c = 17.40 28 219 0 24 7030 27 79960 15677 3.3 25 8 1 6 27% 2118 83062 14246 52%
c d 17.40 28 219 0 24 7030 27 79960 15659 3.3 25 8 1 6 27% 2071 83062 14246 52%
c t 17.41 28 219 0 24 7030 27 79960 15659 3.3 25 8 1 6 27% 2043 83062 14246 52%
c - 17.64 28 217 0 25 7141 27 81640 14433 3.3 25 8 1 6 27% 2052 83062 14246 52%
c - 18.35 28 214 0 26 7558 26 86640 16322 3.3 25 8 1 5 28% 2108 83061 14246 52%
c - 19.34 28 211 0 27 8140 27 91740 18130 3.3 26 8 1 5 28% 2132 83061 14246 52%
c s 19.84 28 209 0 27 8450 26 95814 21688 3.3 26 8 1 5 28% 2180 82856 14246 52%
c e 19.92 28 209 0 27 8450 26 95814 21688 3.3 26 8 1 5 28% 1493 84594 13781 51%
c 2 19.92 28 209 0 27 8450 26 95814 21688 3.3 26 8 1 5 28% 1486 84594 13781 51%
c s 19.92 28 209 0 27 8450 26 95814 21688 3.3 26 8 1 5 28% 1490 84030 13781 51%
c e 19.93 28 209 0 27 8450 26 95814 21688 3.3 26 8 1 5 28% 1471 84094 13764 51%
c ^ 19.93 28 209 0 27 8450 26 95814 21688 3.3 26 8 1 5 28% 1471 84094 13764 51%
c - 20.09 28 207 0 28 8539 26 96936 17410 3.3 26 8 1 5 28% 1480 84094 13764 51%
c - 21.04 28 204 0 29 9156 26 102227 18848 3.3 26 8 1 5 28% 1521 84092 13764 51%
c d 21.37 28 203 0 29 9376 26 104583 20799 3.3 26 8 1 5 28% 1490 84092 13736 50%
c u 21.42 28 203 0 29 9376 26 104583 19179 3.3 26 8 1 5 28% 1507 84092 13736 50%
c v 21.48 28 203 0 29 9376 26 104583 16375 3.3 26 8 1 5 28% 1518 84092 13736 50%
c w 21.60 28 203 0 29 9376 26 104583 16334 3.3 26 8 1 5 28% 1518 84092 13736 50%
c
c  seconds   switched     rate          size/glue tier1    binary         remaining
c         MB   reductions   conflicts         size  tier2     irredundant
c           level   restarts       redundant    glue   trail         variables
c
c x 21.70 28 203 0 29 9376 26 104583 16318 3.3 26 8 1 5 28% 1529 83442 13736 50%
c d 21.71 28 203 0 29 9376 26 104583 16288 3.3 26 8 1 5 28% 1515 83440 13729 50%
c t 21.72 28 203 0 29 9376 26 104583 16288 3.3 26 8 1 5 28% 1484 83440 13729 50%
c f 21.74 28 203 0 29 9376 26 104583 16288 3.3 26 8 1 5 28% 1486 83428 13730 50%
c c 21.78 28 203 0 29 9376 26 104583 16279 3.3 26 8 1 5 28% 1512 83354 13718 50%
c d 21.78 28 203 0 29 9376 26 104583 16279 3.3 26 8 1 5 28% 1488 83354 13718 50%
c u 21.82 28 203 0 29 9376 26 104583 15821 3.3 26 8 1 5 28% 1483 83354 13718 50%
c v 21.86 28 203 0 29 9376 26 104583 15222 3.3 26 8 1 5 28% 1484 83354 13718 50%
c w 22.00 28 203 0 29 9376 26 104583 14890 3.3 26 8 1 5 28% 1484 83354 13718 50%
c x 22.05 28 203 0 29 9376 26 104583 14890 3.3 26 8 1 5 28% 1493 83319 13718 50%
c = 22.49 28 203 0 29 9376 26 104583 14890 3.3 26 8 1 5 28% 2401 83273 13264 49%
c d 22.50 28 203 0 29 9376 26 104583 14627 3.3 26 8 1 5 28% 1408 83273 13264 49%
c t 22.51 28 203 0 29 9376 26 104583 14627 3.3 26 8 1 5 28% 1307 83273 13264 49%
c f 22.52 28 203 0 29 9376 26 104583 14627 3.3 26 8 1 5 28% 1317 83192 13271 49%
c - 23.06 28 204 0 30 9676 26 107612 15165 3.3 27 8 1 5 29% 1334 83192 13271 49%
c o 23.45 28 202 0 30 9900 26 110389 17697 3.3 27 8 1 5 29% 1350 83190 13271 49%
c - 23.82 28 200 0 31 10117 26 113089 17522 3.3 27 8 1 5 29% 1379 83190 13271 49%
c - 24.86 28 198 0 32 10705 26 118657 19559 3.3 27 8 1 5 29% 1392 83189 13271 49%
c - 25.66 28 193 0 33 11125 25 124313 21101 3.3 27 8 1 5 29% 1440 83183 13271 49%
c - 26.44 28 188 0 34 11528 24 130057 22138 3.3 28 8 1 5 29% 1487 83182 13271 49%
c
c  seconds   switched      rate          size/glue tier1    binary         remaining
c         MB   reductions    conflicts         size  tier2     irredundant
c           level   restarts        redundant    glue   trail         variables
c
c d 26.85 28 186 0 34 11756 24 132836 24629 3.3 28 8 1 5 29% 1440 83182 13240 49%
c u 26.90 28 186 0 34 11756 24 132836 22673 3.3 28 8 1 5 29% 1462 83182 13240 49%
c v 26.99 28 186 0 34 11756 24 132836 19456 3.3 28 8 1 5 29% 1471 83182 13240 49%
c w 27.19 28 186 0 34 11756 24 132836 19230 3.3 28 8 1 5 29% 1471 83182 13240 49%
c = 27.61 28 186 0 34 11756 24 132836 19230 3.3 28 8 1 5 29% 1745 83142 13099 48%
c d 27.62 28 186 0 34 11756 24 132836 18941 3.3 28 8 1 5 29% 1442 83142 13099 48%
c t 27.63 28 186 0 34 11756 24 132836 18941 3.3 28 8 1 5 29% 1398 83142 13099 48%
c f 27.64 28 186 0 34 11756 24 132836 18941 3.3 28 8 1 5 29% 1410 83070 13105 48%
c u 27.69 28 186 0 34 11756 24 132836 18318 3.3 28 8 1 5 29% 1416 83070 13105 48%
c v 27.74 28 186 0 34 11756 24 132836 17475 3.3 28 8 1 5 29% 1420 83070 13105 48%
c w 27.89 28 186 0 34 11756 24 132836 17213 3.3 28 8 1 5 29% 1420 83070 13105 48%
c x 27.98 28 186 0 34 11756 24 132836 17195 3.3 28 8 1 5 29% 1437 78552 13105 48%
c = 28.37 28 186 0 34 11756 24 132836 17195 3.3 28 8 1 5 29% 1519 78522 13061 48%
c d 28.37 28 186 0 34 11756 24 132836 17180 3.3 28 8 1 5 29% 1435 78522 13061 48%
c t 28.38 28 186 0 34 11756 24 132836 17180 3.3 28 8 1 5 29% 1408 78522 13061 48%
c i 28.76 28 185 0 34 11949 24 135532 19675 3.3 28 8 1 5 29% 1435 78515 13060 48%
c - 28.85 28 185 0 35 11997 24 135889 17270 3.3 28 8 1 5 29% 1437 78515 13060 48%
c i 28.93 28 185 0 35 12050 24 136263 17620 3.3 28 8 1 5 29% 1446 78515 13059 48%
c i 29.13 28 184 0 35 12148 24 137780 19014 3.3 28 8 1 5 29% 1458 78515 13058 48%
c i 29.57 28 182 0 35 12394 24 141091 22107 3.3 28 8 1 5 29% 1471 78514 13057 48%
c
c  seconds   switched      rate          size/glue tier1    binary         remaining
c         MB   reductions    conflicts         size  tier2     irredundant
c           level   restarts        redundant    glue   trail         variables
c
c i 29.61 28 182 0 35 12407 24 141383 22349 3.3 28 8 1 5 29% 1476 78514 13056 48%
c - 29.66 28 182 0 36 12430 24 141805 19795 3.3 28 8 1 5 29% 1465 78514 13056 48%
c i 29.77 28 182 0 36 12502 24 142380 20324 3.3 28 8 1 5 29% 1468 78514 13055 48%
c i 30.43 28 178 0 36 12851 23 147483 25095 3.3 28 8 1 5 30% 1495 78508 13054 48%
c - 30.46 28 178 0 37 12858 23 147805 21840 3.3 28 8 1 5 30% 1490 78508 13054 48%
c i 30.74 28 177 0 37 13006 23 150015 23862 3.3 28 8 1 5 30% 1508 78502 13053 48%
c - 31.11 28 173 0 38 13213 22 153887 23072 3.2 27 8 1 5 29% 1528 78502 13053 48%
c i 31.12 28 173 0 38 13216 22 154045 23187 3.2 27 8 1 5 29% 1533 78502 13052 48%
c i 31.12 28 173 0 38 13216 22 154062 23194 3.2 27 8 1 5 29% 1538 78502 13051 48%
c i 31.12 28 172 0 38 13217 22 154353 23421 3.2 27 8 1 5 29% 1546 78499 13050 48%
c i 31.12 28 172 0 38 13220 22 154449 23481 3.2 27 8 1 5 29% 1555 78499 13049 48%
c i 31.13 28 172 0 38 13225 22 154668 23645 3.2 27 8 1 5 29% 1567 78494 13048 48%
c i 31.13 28 172 0 38 13227 22 154745 23711 3.2 27 8 1 5 29% 1570 78494 13047 48%
c i 31.13 28 172 0 38 13229 22 154810 23756 3.2 27 8 1 5 29% 1572 78494 13046 48%
c i 31.41 28 170 0 38 13390 22 157073 25812 3.2 27 8 1 5 29% 1592 78493 13045 48%
c i 31.41 28 170 0 38 13390 22 157074 25809 3.2 27 8 1 5 29% 1592 78493 13044 48%
c i 31.42 28 170 0 38 13396 22 157324 26027 3.2 27 8 1 5 29% 1600 78493 13043 48%
c i 31.42 28 170 0 38 13396 22 157407 26095 3.2 27 8 1 5 29% 1608 78493 13038 48%
c i 31.42 28 169 0 38 13396 22 157755 26377 3.2 27 8 1 5 29% 1628 78493 13037 48%
c i 31.42 28 169 0 38 13396 22 157768 26389 3.2 27 8 1 5 29% 1628 78493 13033 48%
c
c  seconds   switched      rate          size/glue tier1    binary         remaining
c         MB   reductions    conflicts         size  tier2     irredundant
c           level   restarts        redundant    glue   trail         variables
c
c 2 31.43 28 169 0 38 13399 22 157890 26483 3.2 27 8 1 5 29% 1631 78493 13032 48%
c s 31.43 28 169 0 38 13399 22 157890 26483 3.2 27 8 1 5 29% 1633 77964 13032 48%
c e 31.53 29 169 0 38 13399 22 157890 26483 3.2 27 8 1 5 29% 1289 88763 11430 42%
c 2 31.53 29 169 0 38 13399 22 157890 26483 3.2 27 8 1 5 29% 1285 88763 11430 42%
c s 31.55 29 169 0 38 13399 22 157890 26483 3.2 27 8 1 5 29% 1302 86497 11430 42%
c e 31.57 29 169 0 38 13399 22 157890 26483 3.2 27 8 1 5 29% 1246 86731 11387 42%
c ^ 31.57 29 169 0 38 13399 22 157890 26483 3.2 27 8 1 5 29% 1246 86731 11387 42%
c i 31.57 29 169 0 38 13399 22 157923 18549 3.2 27 8 1 5 29% 1250 86731 11385 42%
c i 31.57 29 169 0 38 13399 22 157961 18580 3.2 27 8 1 5 29% 1251 86731 11383 42%
c i 31.57 29 169 0 38 13399 22 158028 18622 3.2 27 8 1 5 29% 1259 86731 11379 42%
c i 31.57 29 169 0 38 13399 22 158036 18624 3.2 27 8 1 5 29% 1261 86731 11378 42%
c i 31.57 29 169 0 38 13399 22 158061 18635 3.2 27 8 1 5 29% 1266 86731 11377 42%
c i 31.57 29 169 0 38 13399 22 158064 18635 3.2 27 8 1 5 29% 1268 86731 11373 42%
c } 31.57 29 169 0 38 13399 22 158066 18635 3.2 27 8 1 5 29% 1268 86731 11236 41%
c 0 31.57 29 169 0 38 13399 22 158066 18635 3.2 27 8 1 5 29% 1268 86731 11236 41%
c
c ---- [ result ] ------------------------------------------------------------
c
s UNSATISFIABLE
c
c ---- [ profiling ] ---------------------------------------------------------
c
c          23.36   73.99 %  search
c          23.36   73.99 %  focused
c           7.82   24.78 %  simplify
c           7.44   23.56 %  probe
c           3.09    9.80 %  vivify
c           2.94    9.32 %  sweep
c           0.57    1.82 %  eliminate
c           0.49    1.54 %  factor
c           0.43    1.37 %  congruence
c           0.38    1.20 %  substitute
c           0.34    1.08 %  preprocess
c           0.16    0.51 %  reduce
c           0.14    0.45 %  fastel
c           0.09    0.28 %  subsume
c           0.07    0.21 %  transitive
c           0.04    0.12 %  backbone
c           0.03    0.08 %  lucky
c           0.02    0.07 %  parse
c =============================================
c          31.57  100.00 %  total
c
c ---- [ statistics ] --------------------------------------------------------
c
c chronological:                         6928                4 %  conflicts
c conflicts:                           158066             5006.11 per second
c congruent:                              359                1 %  variables
c decisions:                          3650974               23.10 per conflict
c eliminated:                           12806               47 %  variables
c factored:                              3570               13 %  variables
c fast_eliminated:                       9614               75 %  eliminated
c fast_strengthened:                       42                1 %  per strengthened
c fast_subsumed:                          158                1 %  per subsumed
c iterations:                              28                0 %  variables
c propagations:                     145263297          4600640    per second
c reductions:                              38             4160    interval
c reordered:                                5            31613    interval
c restarts:                             13399               12    interval
c strengthened:                          3249                0 %  checks
c substituted:                           6577               24 %  variables
c subsumed:                             28807                1 %  checks
c switched:                                 0                0    interval
c vivified:                             63037               14 %  checks
c
c ---- [ glue usage ] --------------------------------------------------------
c
c focused glue 1 used 269010 clauses 60.23% accumulated 60.23% tier1
c focused glue 2 used  85626 clauses 19.17% accumulated 79.40%
c focused glue 3 used  26945 clauses  6.03% accumulated 85.44%
c focused glue 4 used  14853 clauses  3.33% accumulated 88.76%
c focused glue 5 used  10055 clauses  2.25% accumulated 91.01% tier2
c
c ---- [ resources ] ---------------------------------------------------------
c
c maximum-resident-set-size:         30420992 bytes         29 MB
c process-time:                            32s              31.57 seconds
c
c ---- [ shutting down ] -----------------------------------------------------
c
c exit 20
